c t mc
c file mc2022_track1_044.cnf
p cnf 130 393
1 0
11 12 0
21 22 23 0
31 32 33 34 0
41 42 43 44 45 0
51 52 53 54 55 56 0
61 62 63 64 65 66 67 0
71 72 73 74 75 76 77 78 0
81 82 83 84 85 86 87 88 89 0
91 92 93 94 95 96 97 98 99 100 0
101 102 103 104 105 106 107 108 109 110 0
111 112 113 114 115 116 117 118 119 120 0
121 122 123 124 125 126 127 128 129 130 0
-1 -121 0
-2 -122 0
-3 -123 0
-4 -124 0
-5 -125 0
-6 -126 0
-7 -127 0
-8 -128 0
-9 -129 0
-10 -130 0
-51 -101 0
-52 -102 0
-53 -103 0
-54 -104 0
-55 -105 0
-56 -106 0
-57 -107 0
-58 -108 0
-59 -109 0
-60 -110 0
-11 -51 0
-12 -52 0
-13 -53 0
-14 -54 0
-15 -55 0
-16 -56 0
-17 -57 0
-18 -58 0
-19 -59 0
-20 -60 0
-41 -91 0
-42 -92 0
-43 -93 0
-44 -94 0
-45 -95 0
-46 -96 0
-47 -97 0
-48 -98 0
-49 -99 0
-50 -100 0
-1 -81 0
-2 -82 0
-3 -83 0
-4 -84 0
-5 -85 0
-6 -86 0
-7 -87 0
-8 -88 0
-9 -89 0
-10 -90 0
-11 -91 0
-12 -92 0
-13 -93 0
-14 -94 0
-15 -95 0
-16 -96 0
-17 -97 0
-18 -98 0
-19 -99 0
-20 -100 0
-1 -111 0
-2 -112 0
-3 -113 0
-4 -114 0
-5 -115 0
-6 -116 0
-7 -117 0
-8 -118 0
-9 -119 0
-10 -120 0
-31 -111 0
-32 -112 0
-33 -113 0
-34 -114 0
-35 -115 0
-36 -116 0
-37 -117 0
-38 -118 0
-39 -119 0
-40 -120 0
-11 -61 0
-12 -62 0
-13 -63 0
-14 -64 0
-15 -65 0
-16 -66 0
-17 -67 0
-18 -68 0
-19 -69 0
-20 -70 0
-1 -71 0
-2 -72 0
-3 -73 0
-4 -74 0
-5 -75 0
-6 -76 0
-7 -77 0
-8 -78 0
-9 -79 0
-10 -80 0
-51 -71 0
-52 -72 0
-53 -73 0
-54 -74 0
-55 -75 0
-56 -76 0
-57 -77 0
-58 -78 0
-59 -79 0
-60 -80 0
-71 -91 0
-72 -92 0
-73 -93 0
-74 -94 0
-75 -95 0
-76 -96 0
-77 -97 0
-78 -98 0
-79 -99 0
-80 -100 0
-11 -101 0
-12 -102 0
-13 -103 0
-14 -104 0
-15 -105 0
-16 -106 0
-17 -107 0
-18 -108 0
-19 -109 0
-20 -110 0
-61 -81 0
-62 -82 0
-63 -83 0
-64 -84 0
-65 -85 0
-66 -86 0
-67 -87 0
-68 -88 0
-69 -89 0
-70 -90 0
-1 -31 0
-2 -32 0
-3 -33 0
-4 -34 0
-5 -35 0
-6 -36 0
-7 -37 0
-8 -38 0
-9 -39 0
-10 -40 0
-31 -121 0
-32 -122 0
-33 -123 0
-34 -124 0
-35 -125 0
-36 -126 0
-37 -127 0
-38 -128 0
-39 -129 0
-40 -130 0
-81 -101 0
-82 -102 0
-83 -103 0
-84 -104 0
-85 -105 0
-86 -106 0
-87 -107 0
-88 -108 0
-89 -109 0
-90 -110 0
-11 -71 0
-12 -72 0
-13 -73 0
-14 -74 0
-15 -75 0
-16 -76 0
-17 -77 0
-18 -78 0
-19 -79 0
-20 -80 0
-1 -101 0
-2 -102 0
-3 -103 0
-4 -104 0
-5 -105 0
-6 -106 0
-7 -107 0
-8 -108 0
-9 -109 0
-10 -110 0
-11 -21 0
-12 -22 0
-13 -23 0
-14 -24 0
-15 -25 0
-16 -26 0
-17 -27 0
-18 -28 0
-19 -29 0
-20 -30 0
-51 -81 0
-52 -82 0
-53 -83 0
-54 -84 0
-55 -85 0
-56 -86 0
-57 -87 0
-58 -88 0
-59 -89 0
-60 -90 0
-71 -101 0
-72 -102 0
-73 -103 0
-74 -104 0
-75 -105 0
-76 -106 0
-77 -107 0
-78 -108 0
-79 -109 0
-80 -110 0
-11 -111 0
-12 -112 0
-13 -113 0
-14 -114 0
-15 -115 0
-16 -116 0
-17 -117 0
-18 -118 0
-19 -119 0
-20 -120 0
-61 -71 0
-62 -72 0
-63 -73 0
-64 -74 0
-65 -75 0
-66 -76 0
-67 -77 0
-68 -78 0
-69 -79 0
-70 -80 0
-1 -61 0
-2 -62 0
-3 -63 0
-4 -64 0
-5 -65 0
-6 -66 0
-7 -67 0
-8 -68 0
-9 -69 0
-10 -70 0
-21 -121 0
-22 -122 0
-23 -123 0
-24 -124 0
-25 -125 0
-26 -126 0
-27 -127 0
-28 -128 0
-29 -129 0
-30 -130 0
-81 -91 0
-82 -92 0
-83 -93 0
-84 -94 0
-85 -95 0
-86 -96 0
-87 -97 0
-88 -98 0
-89 -99 0
-90 -100 0
-11 -81 0
-12 -82 0
-13 -83 0
-14 -84 0
-15 -85 0
-16 -86 0
-17 -87 0
-18 -88 0
-19 -89 0
-20 -90 0
-1 -21 0
-2 -22 0
-3 -23 0
-4 -24 0
-5 -25 0
-6 -26 0
-7 -27 0
-8 -28 0
-9 -29 0
-10 -30 0
-61 -101 0
-62 -102 0
-63 -103 0
-64 -104 0
-65 -105 0
-66 -106 0
-67 -107 0
-68 -108 0
-69 -109 0
-70 -110 0
-1 -91 0
-2 -92 0
-3 -93 0
-4 -94 0
-5 -95 0
-6 -96 0
-7 -97 0
-8 -98 0
-9 -99 0
-10 -100 0
-11 -31 0
-12 -32 0
-13 -33 0
-14 -34 0
-15 -35 0
-16 -36 0
-17 -37 0
-18 -38 0
-19 -39 0
-20 -40 0
-51 -91 0
-52 -92 0
-53 -93 0
-54 -94 0
-55 -95 0
-56 -96 0
-57 -97 0
-58 -98 0
-59 -99 0
-60 -100 0
-11 -121 0
-12 -122 0
-13 -123 0
-14 -124 0
-15 -125 0
-16 -126 0
-17 -127 0
-18 -128 0
-19 -129 0
-20 -130 0
-41 -101 0
-42 -102 0
-43 -103 0
-44 -104 0
-45 -105 0
-46 -106 0
-47 -107 0
-48 -108 0
-49 -109 0
-50 -110 0
-1 -51 0
-2 -52 0
-3 -53 0
-4 -54 0
-5 -55 0
-6 -56 0
-7 -57 0
-8 -58 0
-9 -59 0
-10 -60 0
-21 -111 0
-22 -112 0
-23 -113 0
-24 -114 0
-25 -115 0
-26 -116 0
-27 -117 0
-28 -118 0
-29 -119 0
-30 -120 0
-61 -91 0
-62 -92 0
-63 -93 0
-64 -94 0
-65 -95 0
-66 -96 0
-67 -97 0
-68 -98 0
-69 -99 0
-70 -100 0
